Input: forumt-14crafc.fixed040-Forb.dzn
============================================================
Total Runtime: 0.4522 seconds
Input parsing: 0.0271 seconds
Constraint building: 0.1979 seconds
MaxSAT solving: 0.0561 seconds
============================================================

Total variables: 75421
Total clauses: 162973
MaxSAT found with cost: N/A
NO SOLUTION FOUND
